(set-info :smt-lib-version 2.6)
(set-logic QF_SLIA)
(set-info :source |
Generated by: Joel Day, Thorsten Ehlers, Mitja Kulczynski, Federico Mora, Florin Manea, Dirk Nowotka, Danny Poulsen, Zhengyang Lu
Application: Test WOORPJE
Target solver: WOORPJE
Publications: Day, J. D., Ehlers, T., Kulczynski, M., Manea, F., Nowotka, D., & Poulsen, D. B. (2019). On solving word equations using SAT. In RP 2019
Description: Enriches a system of 30 word equations by suitable linear constraints
|)
(set-info :license "https://creativecommons.org/licenses/by/4.0/")
(set-info :category "random")
(set-info :status unknown)

(declare-fun H () String)
(declare-fun B () String)
(declare-fun F () String)
(declare-fun J () String)
(declare-fun C () String)
(assert (= (str.++  "bcadeacfffdfbeefd" J "dfdbabcadda")  (str.++  "bcadeacfffdf" H "fdbabcadda") ))
(assert (= (str.++  "cccdbeafcaecbadff" B "cceeebfafbdfdceba")  (str.++  "cccdbea" C "a" F "ebfafbdfdceba") ))
(assert (= (str.++  "fafcfefcdcecafffdebcfdcabedbdebadbccfebf" "")  (str.++  "fafcfefcdce" J "debcfdcabedbdebadbccfebf") ))
(assert (= (str.++  "cafffffebcacfcafcfbfbcfefcabcffaadcebcbe" "")  (str.++  J "ffebcacfcafcfbfbcfefcabcffaadcebcbe" "") ))
(assert (<=(* (str.len H) 11) 1705))
(assert (<=(* (str.len C) 17) 2057))
(assert (>=(* (str.len B) 8) 24))
(assert (<=(* (str.len B) 9) 81))
(check-sat)

(exit)
